
Value of objective function: 0

Actual values of the variables:
pL1_div_from_law                0
comp_pos0                       0
comp_neg0                       0
comp_pos1                       0
comp_neg1                       0
comp_pos2                       0
comp_neg2                       0
comp_pos3                       0
comp_neg3                       0
comp_pos4                       0
comp_neg4                       0
comp_pos5                       0
comp_neg5                       0
comp_pos6                       0
comp_neg6                       0
comp_pos7                       0
comp_neg7                       0
comp_pos8                       0
comp_neg8                       0
comp_pos9                       0
comp_neg9                       0
comp_pos10                      0
comp_neg10                      0
comp_pos11                      0
comp_neg11                      0
comp_pos12                      0
comp_neg12                      0
comp_pos13                      0
comp_neg13                      0
z_c0_t0               1.32138e+10
p0_c0_t0              1.69291e+08
p1_c0_t0              1.06325e+08
p2_c0_t0              9.52342e+09
p3_c0_t0               3.4148e+09
diff0                           0
normdiff0                       0
z_c0_t1               1.47752e+10
p0_c0_t1              1.47105e+08
p1_c0_t1              1.18054e+08
p2_c0_t1              1.19503e+10
p3_c0_t1              2.55977e+09
diff1                           0
normdiff1                       0
z_c1_t0               1.65566e+10
p0_c1_t0               1.6947e+08
p1_c1_t0              1.36618e+08
p2_c1_t0              1.54792e+10
p3_c1_t0              7.71338e+08
diff2                           0
normdiff2                       0
z_c1_t1               1.94959e+10
p0_c1_t1                1.725e+08
p1_c1_t1              1.94357e+08
p2_c1_t1              1.82146e+10
p3_c1_t1              9.14407e+08
diff3                           0
normdiff3                       0
z_c2_t0               7.24754e+09
p0_c2_t0              5.83997e+07
p1_c2_t0              5.57491e+07
p2_c2_t0              6.45155e+09
p3_c2_t0              6.81848e+08
diff4                           0
normdiff4                       0
z_c2_t1               7.97123e+09
p0_c2_t1              4.74084e+07
p1_c2_t1              6.51635e+07
p2_c2_t1              7.23881e+09
p3_c2_t1              6.19847e+08
diff5                           0
normdiff5                       0
z_c3_t0               1.22612e+10
p0_c3_t0              1.04613e+08
p1_c3_t0              9.53096e+07
p2_c3_t0              9.17614e+09
p3_c3_t0              2.88512e+09
diff6                           0
normdiff6                       0
z_c3_t1               1.42798e+10
p0_c3_t1              1.18327e+08
p1_c3_t1              9.76084e+07
p2_c3_t1              8.87423e+09
p3_c3_t1              5.18961e+09
diff7                           0
normdiff7                       0
z_c4_t0               7.97197e+09
p0_c4_t0              4.66352e+07
p1_c4_t0              1.07719e+08
p2_c4_t0              7.27021e+09
p3_c4_t0              5.47401e+08
diff8                           0
normdiff8                       0
z_c4_t1                8.9819e+09
p0_c4_t1              4.82228e+07
p1_c4_t1              9.81883e+07
p2_c4_t1              8.41237e+09
p3_c4_t1              4.23121e+08
diff9                           0
normdiff9                       0
z_c5_t0               1.00642e+10
p0_c5_t0              8.22395e+07
p1_c5_t0              8.99901e+07
p2_c5_t0              9.66406e+09
p3_c5_t0              2.27866e+08
diff10                          0
normdiff10                      0
z_c5_t1                1.2016e+10
p0_c5_t1                6.008e+07
p1_c5_t1              8.91374e+07
p2_c5_t1              1.11704e+10
p3_c5_t1              6.96386e+08
diff11                          0
normdiff11                      0
z_c6_t0               1.81204e+10
p0_c6_t0              1.48676e+08
p1_c6_t0              1.12562e+08
p2_c6_t0              1.71153e+10
p3_c6_t0              7.43845e+08
diff12                          0
normdiff12                      0
z_c6_t1               2.06345e+10
p0_c6_t1              1.59867e+08
p1_c6_t1              1.03172e+08
p2_c6_t1              1.97799e+10
p3_c6_t1              5.91505e+08
diff13                          0
normdiff13           -0
